(set-info :Origin "This instance was generated by: BanditFuzz-- an RL fuzzer for SMT solvers" )
(set-info :Author "Joe Scott, Fed Mora, Vijay Ganesh" )
(set-info :Contact "Joe Scott, joseph.scott@uwaterloo.ca")
(set-logic QF_BV)
(declare-const bool_0 Bool)
(declare-const bool_1 Bool)
(declare-const bool_2 Bool)
(declare-const bool_3 Bool)
(declare-const bool_4 Bool)
(declare-const bv_0 (_ BitVec 32))
(declare-const bv_1 (_ BitVec 32))
(declare-const bv_2 (_ BitVec 32))
(declare-const bv_3 (_ BitVec 32))
(declare-const bv_4 (_ BitVec 32))
(assert (bvsgt (bvsub (bvsdiv #xcdcdc927  bv_3) (bvxor bv_0 #x9d7d736e )) (bvudiv (bvadd #x8fa14588  #x5ab89a44 ) (bvmul bv_3 bv_4))))
(assert (not (not (or false false))))
(assert (=> (bvugt (bvurem #x80ad3aa8  bv_1) (bvshl #x5f9f7bcd  #xfeb5a075 )) (=> (xor bool_4 true) (bvsgt #x2b677bea  #x3ce05980 ))))
(assert (bvugt (bvshl (bvand #x609a238b  #x03cb1d45 ) (bvadd #x2209992e  #x0846b4c4 )) (bvnand (bvxnor #x4f326be0  #x11381e1b ) (bvudiv #xaf80d3bb  bv_4))))
(assert (bvslt (bvadd (bvand #xfa0f677b  bv_2) (bvsdiv #x0142900c  bv_4)) (bvnor (bvadd #xa4093c52  bv_4) (bvand #x1d3ba280  bv_3))))
(check-sat)
(exit)
